20	5
0	6	5	3	2	4	1	6
1	1	14
2	4	20	19	10	11
3	1	7
4	1	12
5	2	20	17
6	2	20	15
7	2	13	8
8	3	16	10	19
9	1	20
10	1	18
11	1	15
12	2	17	9
13	2	16	19
14	1	13
15	1	16
16	1	21
17	1	21
18	1	21
19	1	21
20	1	21
21	0
0	0	0	0	0	0	0
1	4	2	2	5	3	2
2	6	5	2	2	4	4
3	8	5	5	1	1	1
4	4	3	1	2	3	3
5	10	1	2	2	2	5
6	9	5	4	1	3	2
7	9	3	3	4	5	1
8	6	1	5	3	4	1
9	10	4	2	2	5	4
10	8	3	5	5	1	1
11	6	4	3	1	1	2
12	7	5	2	3	5	1
13	7	5	1	3	3	5
14	10	5	1	4	4	2
15	3	2	4	2	3	1
16	5	2	2	5	2	1
17	1	5	3	2	4	4
18	2	4	5	5	4	3
19	10	5	1	2	3	4
20	8	3	4	1	5	2
21	0	0	0	0	0	0
8	7	7	7	6
